db/inputs/206491712916763023385167471394921378.smt2
(set-logic QF_FP)
(declare-const x0 (_ FloatingPoint 11 53))
(declare-const x1 (_ FloatingPoint 11 53))
(declare-const x2 (_ FloatingPoint 11 53))
(declare-const x3 (_ FloatingPoint 11 53))
(declare-const x4 (_ FloatingPoint 11 53))
(declare-const x5 (_ FloatingPoint 11 53))
(assert (fp.eq (fp.mul RNE (fp.sub RNE (fp.mul RNE (fp.mul RNE x0 x1) (fp.mul RNE x5 x3)) (fp.sub RNE (fp.sub RNE x3 x5) (fp.div RNE x3 x5))) (fp.neg (fp.add RNE (fp.div RNE x5 x0) (fp.sub RNE x0 x4)))) (fp.sub RNE (fp.sub RNE (fp.div RNE (fp.mul RNE x5 x4) (fp.div RNE x3 x0)) (fp.div RNE (fp.add RNE x2 x5) (fp.sub RNE x0 x5))) (fp.mul RNE (fp.add RNE (fp.mul RNE x3 x2) (fp.div RNE x3 x5)) (fp.sub RNE (fp.div RNE x3 x0) (fp.div RNE x4 x3))))))
(check-sat)
