db/data/206491712916763023385167471394921378.z3.out
-------------------
2500.126746727
